(set-logic QF_LRA)
(declare-fun X0 () Real )
(declare-fun Y0 () Real )
(declare-fun X1 () Real )
(declare-fun Y1 () Real )
(declare-fun X2 () Real )
(declare-fun Y2 () Real )
(declare-fun X3 () Real )
(declare-fun Y3 () Real )
(declare-fun X4 () Real )
(declare-fun Y4 () Real )
(declare-fun X5 () Real )
(declare-fun Y5 () Real )
(declare-fun X6 () Real )
(declare-fun Y6 () Real )
(declare-fun X7 () Real )
(declare-fun Y7 () Real )
(declare-fun X8 () Real )
(declare-fun Y8 () Real )
(declare-fun X9 () Real )
(declare-fun Y9 () Real )
(declare-fun X10 () Real )
(declare-fun Y10 () Real )
(declare-fun X11 () Real )
(declare-fun Y11 () Real )
(declare-fun Z () Real )
(assert ( and  
( or ( <= ( + X0 16 ) X1 )  ( <= ( + X1 58 ) X0 )  ( <= ( + Y0 66 ) Y1 )  ( <= ( + Y1 42 ) Y0 )  )
( or ( <= ( + X0 16 ) X2 )  ( <= ( + X2 29 ) X0 )  ( <= ( + Y0 66 ) Y2 )  ( <= ( + Y2 91 ) Y0 )  )
( or ( <= ( + X0 16 ) X3 )  ( <= ( + X3 64 ) X0 )  ( <= ( + Y0 66 ) Y3 )  ( <= ( + Y3 16 ) Y0 )  )
( or ( <= ( + X0 16 ) X4 )  ( <= ( + X4 99 ) X0 )  ( <= ( + Y0 66 ) Y4 )  ( <= ( + Y4 74 ) Y0 )  )
( or ( <= ( + X0 16 ) X5 )  ( <= ( + X5 39 ) X0 )  ( <= ( + Y0 66 ) Y5 )  ( <= ( + Y5 65 ) Y0 )  )
( or ( <= ( + X0 16 ) X6 )  ( <= ( + X6 36 ) X0 )  ( <= ( + Y0 66 ) Y6 )  ( <= ( + Y6 99 ) Y0 )  )
( or ( <= ( + X0 16 ) X7 )  ( <= ( + X7 50 ) X0 )  ( <= ( + Y0 66 ) Y7 )  ( <= ( + Y7 18 ) Y0 )  )
( or ( <= ( + X0 16 ) X8 )  ( <= ( + X8 57 ) X0 )  ( <= ( + Y0 66 ) Y8 )  ( <= ( + Y8 83 ) Y0 )  )
( or ( <= ( + X0 16 ) X9 )  ( <= ( + X9 67 ) X0 )  ( <= ( + Y0 66 ) Y9 )  ( <= ( + Y9 42 ) Y0 )  )
( or ( <= ( + X0 16 ) X10 )  ( <= ( + X10 19 ) X0 )  ( <= ( + Y0 66 ) Y10 )  ( <= ( + Y10 87 ) Y0 )  )
( or ( <= ( + X0 16 ) X11 )  ( <= ( + X11 11 ) X0 )  ( <= ( + Y0 66 ) Y11 )  ( <= ( + Y11 18 ) Y0 )  )
( or ( <= ( + X1 58 ) X2 )  ( <= ( + X2 29 ) X1 )  ( <= ( + Y1 42 ) Y2 )  ( <= ( + Y2 91 ) Y1 )  )
( or ( <= ( + X1 58 ) X3 )  ( <= ( + X3 64 ) X1 )  ( <= ( + Y1 42 ) Y3 )  ( <= ( + Y3 16 ) Y1 )  )
( or ( <= ( + X1 58 ) X4 )  ( <= ( + X4 99 ) X1 )  ( <= ( + Y1 42 ) Y4 )  ( <= ( + Y4 74 ) Y1 )  )
( or ( <= ( + X1 58 ) X5 )  ( <= ( + X5 39 ) X1 )  ( <= ( + Y1 42 ) Y5 )  ( <= ( + Y5 65 ) Y1 )  )
( or ( <= ( + X1 58 ) X6 )  ( <= ( + X6 36 ) X1 )  ( <= ( + Y1 42 ) Y6 )  ( <= ( + Y6 99 ) Y1 )  )
( or ( <= ( + X1 58 ) X7 )  ( <= ( + X7 50 ) X1 )  ( <= ( + Y1 42 ) Y7 )  ( <= ( + Y7 18 ) Y1 )  )
( or ( <= ( + X1 58 ) X8 )  ( <= ( + X8 57 ) X1 )  ( <= ( + Y1 42 ) Y8 )  ( <= ( + Y8 83 ) Y1 )  )
( or ( <= ( + X1 58 ) X9 )  ( <= ( + X9 67 ) X1 )  ( <= ( + Y1 42 ) Y9 )  ( <= ( + Y9 42 ) Y1 )  )
( or ( <= ( + X1 58 ) X10 )  ( <= ( + X10 19 ) X1 )  ( <= ( + Y1 42 ) Y10 )  ( <= ( + Y10 87 ) Y1 )  )
( or ( <= ( + X1 58 ) X11 )  ( <= ( + X11 11 ) X1 )  ( <= ( + Y1 42 ) Y11 )  ( <= ( + Y11 18 ) Y1 )  )
( or ( <= ( + X2 29 ) X3 )  ( <= ( + X3 64 ) X2 )  ( <= ( + Y2 91 ) Y3 )  ( <= ( + Y3 16 ) Y2 )  )
( or ( <= ( + X2 29 ) X4 )  ( <= ( + X4 99 ) X2 )  ( <= ( + Y2 91 ) Y4 )  ( <= ( + Y4 74 ) Y2 )  )
( or ( <= ( + X2 29 ) X5 )  ( <= ( + X5 39 ) X2 )  ( <= ( + Y2 91 ) Y5 )  ( <= ( + Y5 65 ) Y2 )  )
( or ( <= ( + X2 29 ) X6 )  ( <= ( + X6 36 ) X2 )  ( <= ( + Y2 91 ) Y6 )  ( <= ( + Y6 99 ) Y2 )  )
( or ( <= ( + X2 29 ) X7 )  ( <= ( + X7 50 ) X2 )  ( <= ( + Y2 91 ) Y7 )  ( <= ( + Y7 18 ) Y2 )  )
( or ( <= ( + X2 29 ) X8 )  ( <= ( + X8 57 ) X2 )  ( <= ( + Y2 91 ) Y8 )  ( <= ( + Y8 83 ) Y2 )  )
( or ( <= ( + X2 29 ) X9 )  ( <= ( + X9 67 ) X2 )  ( <= ( + Y2 91 ) Y9 )  ( <= ( + Y9 42 ) Y2 )  )
( or ( <= ( + X2 29 ) X10 )  ( <= ( + X10 19 ) X2 )  ( <= ( + Y2 91 ) Y10 )  ( <= ( + Y10 87 ) Y2 )  )
( or ( <= ( + X2 29 ) X11 )  ( <= ( + X11 11 ) X2 )  ( <= ( + Y2 91 ) Y11 )  ( <= ( + Y11 18 ) Y2 )  )
( or ( <= ( + X3 64 ) X4 )  ( <= ( + X4 99 ) X3 )  ( <= ( + Y3 16 ) Y4 )  ( <= ( + Y4 74 ) Y3 )  )
( or ( <= ( + X3 64 ) X5 )  ( <= ( + X5 39 ) X3 )  ( <= ( + Y3 16 ) Y5 )  ( <= ( + Y5 65 ) Y3 )  )
( or ( <= ( + X3 64 ) X6 )  ( <= ( + X6 36 ) X3 )  ( <= ( + Y3 16 ) Y6 )  ( <= ( + Y6 99 ) Y3 )  )
( or ( <= ( + X3 64 ) X7 )  ( <= ( + X7 50 ) X3 )  ( <= ( + Y3 16 ) Y7 )  ( <= ( + Y7 18 ) Y3 )  )
( or ( <= ( + X3 64 ) X8 )  ( <= ( + X8 57 ) X3 )  ( <= ( + Y3 16 ) Y8 )  ( <= ( + Y8 83 ) Y3 )  )
( or ( <= ( + X3 64 ) X9 )  ( <= ( + X9 67 ) X3 )  ( <= ( + Y3 16 ) Y9 )  ( <= ( + Y9 42 ) Y3 )  )
( or ( <= ( + X3 64 ) X10 )  ( <= ( + X10 19 ) X3 )  ( <= ( + Y3 16 ) Y10 )  ( <= ( + Y10 87 ) Y3 )  )
( or ( <= ( + X3 64 ) X11 )  ( <= ( + X11 11 ) X3 )  ( <= ( + Y3 16 ) Y11 )  ( <= ( + Y11 18 ) Y3 )  )
( or ( <= ( + X4 99 ) X5 )  ( <= ( + X5 39 ) X4 )  ( <= ( + Y4 74 ) Y5 )  ( <= ( + Y5 65 ) Y4 )  )
( or ( <= ( + X4 99 ) X6 )  ( <= ( + X6 36 ) X4 )  ( <= ( + Y4 74 ) Y6 )  ( <= ( + Y6 99 ) Y4 )  )
( or ( <= ( + X4 99 ) X7 )  ( <= ( + X7 50 ) X4 )  ( <= ( + Y4 74 ) Y7 )  ( <= ( + Y7 18 ) Y4 )  )
( or ( <= ( + X4 99 ) X8 )  ( <= ( + X8 57 ) X4 )  ( <= ( + Y4 74 ) Y8 )  ( <= ( + Y8 83 ) Y4 )  )
( or ( <= ( + X4 99 ) X9 )  ( <= ( + X9 67 ) X4 )  ( <= ( + Y4 74 ) Y9 )  ( <= ( + Y9 42 ) Y4 )  )
( or ( <= ( + X4 99 ) X10 )  ( <= ( + X10 19 ) X4 )  ( <= ( + Y4 74 ) Y10 )  ( <= ( + Y10 87 ) Y4 )  )
( or ( <= ( + X4 99 ) X11 )  ( <= ( + X11 11 ) X4 )  ( <= ( + Y4 74 ) Y11 )  ( <= ( + Y11 18 ) Y4 )  )
( or ( <= ( + X5 39 ) X6 )  ( <= ( + X6 36 ) X5 )  ( <= ( + Y5 65 ) Y6 )  ( <= ( + Y6 99 ) Y5 )  )
( or ( <= ( + X5 39 ) X7 )  ( <= ( + X7 50 ) X5 )  ( <= ( + Y5 65 ) Y7 )  ( <= ( + Y7 18 ) Y5 )  )
( or ( <= ( + X5 39 ) X8 )  ( <= ( + X8 57 ) X5 )  ( <= ( + Y5 65 ) Y8 )  ( <= ( + Y8 83 ) Y5 )  )
( or ( <= ( + X5 39 ) X9 )  ( <= ( + X9 67 ) X5 )  ( <= ( + Y5 65 ) Y9 )  ( <= ( + Y9 42 ) Y5 )  )
( or ( <= ( + X5 39 ) X10 )  ( <= ( + X10 19 ) X5 )  ( <= ( + Y5 65 ) Y10 )  ( <= ( + Y10 87 ) Y5 )  )
( or ( <= ( + X5 39 ) X11 )  ( <= ( + X11 11 ) X5 )  ( <= ( + Y5 65 ) Y11 )  ( <= ( + Y11 18 ) Y5 )  )
( or ( <= ( + X6 36 ) X7 )  ( <= ( + X7 50 ) X6 )  ( <= ( + Y6 99 ) Y7 )  ( <= ( + Y7 18 ) Y6 )  )
( or ( <= ( + X6 36 ) X8 )  ( <= ( + X8 57 ) X6 )  ( <= ( + Y6 99 ) Y8 )  ( <= ( + Y8 83 ) Y6 )  )
( or ( <= ( + X6 36 ) X9 )  ( <= ( + X9 67 ) X6 )  ( <= ( + Y6 99 ) Y9 )  ( <= ( + Y9 42 ) Y6 )  )
( or ( <= ( + X6 36 ) X10 )  ( <= ( + X10 19 ) X6 )  ( <= ( + Y6 99 ) Y10 )  ( <= ( + Y10 87 ) Y6 )  )
( or ( <= ( + X6 36 ) X11 )  ( <= ( + X11 11 ) X6 )  ( <= ( + Y6 99 ) Y11 )  ( <= ( + Y11 18 ) Y6 )  )
( or ( <= ( + X7 50 ) X8 )  ( <= ( + X8 57 ) X7 )  ( <= ( + Y7 18 ) Y8 )  ( <= ( + Y8 83 ) Y7 )  )
( or ( <= ( + X7 50 ) X9 )  ( <= ( + X9 67 ) X7 )  ( <= ( + Y7 18 ) Y9 )  ( <= ( + Y9 42 ) Y7 )  )
( or ( <= ( + X7 50 ) X10 )  ( <= ( + X10 19 ) X7 )  ( <= ( + Y7 18 ) Y10 )  ( <= ( + Y10 87 ) Y7 )  )
( or ( <= ( + X7 50 ) X11 )  ( <= ( + X11 11 ) X7 )  ( <= ( + Y7 18 ) Y11 )  ( <= ( + Y11 18 ) Y7 )  )
( or ( <= ( + X8 57 ) X9 )  ( <= ( + X9 67 ) X8 )  ( <= ( + Y8 83 ) Y9 )  ( <= ( + Y9 42 ) Y8 )  )
( or ( <= ( + X8 57 ) X10 )  ( <= ( + X10 19 ) X8 )  ( <= ( + Y8 83 ) Y10 )  ( <= ( + Y10 87 ) Y8 )  )
( or ( <= ( + X8 57 ) X11 )  ( <= ( + X11 11 ) X8 )  ( <= ( + Y8 83 ) Y11 )  ( <= ( + Y11 18 ) Y8 )  )
( or ( <= ( + X9 67 ) X10 )  ( <= ( + X10 19 ) X9 )  ( <= ( + Y9 42 ) Y10 )  ( <= ( + Y10 87 ) Y9 )  )
( or ( <= ( + X9 67 ) X11 )  ( <= ( + X11 11 ) X9 )  ( <= ( + Y9 42 ) Y11 )  ( <= ( + Y11 18 ) Y9 )  )
( or ( <= ( + X10 19 ) X11 )  ( <= ( + X11 11 ) X10 )  ( <= ( + Y10 87 ) Y11 )  ( <= ( + Y11 18 ) Y10 )  )
( >= X0 0)
( <= ( + X0 16) Z)
( >= Y0 0)
( <= ( + Y0 66 ) 100)
( >= X1 0)
( <= ( + X1 58) Z)
( >= Y1 0)
( <= ( + Y1 42 ) 100)
( >= X2 0)
( <= ( + X2 29) Z)
( >= Y2 0)
( <= ( + Y2 91 ) 100)
( >= X3 0)
( <= ( + X3 64) Z)
( >= Y3 0)
( <= ( + Y3 16 ) 100)
( >= X4 0)
( <= ( + X4 99) Z)
( >= Y4 0)
( <= ( + Y4 74 ) 100)
( >= X5 0)
( <= ( + X5 39) Z)
( >= Y5 0)
( <= ( + Y5 65 ) 100)
( >= X6 0)
( <= ( + X6 36) Z)
( >= Y6 0)
( <= ( + Y6 99 ) 100)
( >= X7 0)
( <= ( + X7 50) Z)
( >= Y7 0)
( <= ( + Y7 18 ) 100)
( >= X8 0)
( <= ( + X8 57) Z)
( >= Y8 0)
( <= ( + Y8 83 ) 100)
( >= X9 0)
( <= ( + X9 67) Z)
( >= Y9 0)
( <= ( + Y9 42 ) 100)
( >= X10 0)
( <= ( + X10 19) Z)
( >= Y10 0)
( <= ( + Y10 87 ) 100)
( >= X11 0)
( <= ( + X11 11) Z)
( >= Y11 0)
( <= ( + Y11 18 ) 100)
) )
(minimize Z)
(check-sat)
